/* Objective function */
min: +C82 +C83 +C84 +C85 +C86 +C87 +C88 +C89 +C90;

/* Constraints */
+4 C1 +80 C2 +171 C3 +22 C4 +42 C5 +C6 +22 C7 +42 C8 +C9 -195 C82 <= 0;
+4 C10 +80 C11 +171 C12 +22 C13 +42 C14 +C15 +22 C16 +42 C17 +C18 -195 C83 <= 0;
+4 C19 +80 C20 +171 C21 +22 C22 +42 C23 +C24 +22 C25 +42 C26 +C27 -195 C84 <= 0;
+4 C28 +80 C29 +171 C30 +22 C31 +42 C32 +C33 +22 C34 +42 C35 +C36 -195 C85 <= 0;
+4 C37 +80 C38 +171 C39 +22 C40 +42 C41 +C42 +22 C43 +42 C44 +C45 -195 C86 <= 0;
+4 C46 +80 C47 +171 C48 +22 C49 +42 C50 +C51 +22 C52 +42 C53 +C54 -195 C87 <= 0;
+4 C55 +80 C56 +171 C57 +22 C58 +42 C59 +C60 +22 C61 +42 C62 +C63 -195 C88 <= 0;
+4 C64 +80 C65 +171 C66 +22 C67 +42 C68 +C69 +22 C70 +42 C71 +C72 -195 C89 <= 0;
+4 C73 +80 C74 +171 C75 +22 C76 +42 C77 +C78 +22 C79 +42 C80 +C81 -195 C90 <= 0;
+59 C1 +68 C2 +12 C3 +66 C4 +48 C5 +75 C6 +66 C7 +48 C8 +75 C9 -81 C82 <= 0;
+59 C10 +68 C11 +12 C12 +66 C13 +48 C14 +75 C15 +66 C16 +48 C17 +75 C18 -81 C83 <= 0;
+59 C19 +68 C20 +12 C21 +66 C22 +48 C23 +75 C24 +66 C25 +48 C26 +75 C27 -81 C84 <= 0;
+59 C28 +68 C29 +12 C30 +66 C31 +48 C32 +75 C33 +66 C34 +48 C35 +75 C36 -81 C85 <= 0;
+59 C37 +68 C38 +12 C39 +66 C40 +48 C41 +75 C42 +66 C43 +48 C44 +75 C45 -81 C86 <= 0;
+59 C46 +68 C47 +12 C48 +66 C49 +48 C50 +75 C51 +66 C52 +48 C53 +75 C54 -81 C87 <= 0;
+59 C55 +68 C56 +12 C57 +66 C58 +48 C59 +75 C60 +66 C61 +48 C62 +75 C63 -81 C88 <= 0;
+59 C64 +68 C65 +12 C66 +66 C67 +48 C68 +75 C69 +66 C70 +48 C71 +75 C72 -81 C89 <= 0;
+59 C73 +68 C74 +12 C75 +66 C76 +48 C77 +75 C78 +66 C79 +48 C80 +75 C81 -81 C90 <= 0;
+C1 +C10 +C19 +C28 +C37 +C46 +C55 +C64 +C73 = 1;
+C2 +C11 +C20 +C29 +C38 +C47 +C56 +C65 +C74 = 1;
+C3 +C12 +C21 +C30 +C39 +C48 +C57 +C66 +C75 = 1;
+C4 +C13 +C22 +C31 +C40 +C49 +C58 +C67 +C76 = 1;
+C5 +C14 +C23 +C32 +C41 +C50 +C59 +C68 +C77 = 1;
+C6 +C15 +C24 +C33 +C42 +C51 +C60 +C69 +C78 = 1;
+C7 +C16 +C25 +C34 +C43 +C52 +C61 +C70 +C79 = 1;
+C8 +C17 +C26 +C35 +C44 +C53 +C62 +C71 +C80 = 1;
+C9 +C18 +C27 +C36 +C45 +C54 +C63 +C72 +C81 = 1;

/* Variable bounds */
C1 <= 1;
C2 <= 1;
C3 <= 1;
C4 <= 1;
C5 <= 1;
C6 <= 1;
C7 <= 1;
C8 <= 1;
C9 <= 1;
C10 <= 1;
C11 <= 1;
C12 <= 1;
C13 <= 1;
C14 <= 1;
C15 <= 1;
C16 <= 1;
C17 <= 1;
C18 <= 1;
C19 <= 1;
C20 <= 1;
C21 <= 1;
C22 <= 1;
C23 <= 1;
C24 <= 1;
C25 <= 1;
C26 <= 1;
C27 <= 1;
C28 <= 1;
C29 <= 1;
C30 <= 1;
C31 <= 1;
C32 <= 1;
C33 <= 1;
C34 <= 1;
C35 <= 1;
C36 <= 1;
C37 <= 1;
C38 <= 1;
C39 <= 1;
C40 <= 1;
C41 <= 1;
C42 <= 1;
C43 <= 1;
C44 <= 1;
C45 <= 1;
C46 <= 1;
C47 <= 1;
C48 <= 1;
C49 <= 1;
C50 <= 1;
C51 <= 1;
C52 <= 1;
C53 <= 1;
C54 <= 1;
C55 <= 1;
C56 <= 1;
C57 <= 1;
C58 <= 1;
C59 <= 1;
C60 <= 1;
C61 <= 1;
C62 <= 1;
C63 <= 1;
C64 <= 1;
C65 <= 1;
C66 <= 1;
C67 <= 1;
C68 <= 1;
C69 <= 1;
C70 <= 1;
C71 <= 1;
C72 <= 1;
C73 <= 1;
C74 <= 1;
C75 <= 1;
C76 <= 1;
C77 <= 1;
C78 <= 1;
C79 <= 1;
C80 <= 1;
C81 <= 1;
C82 <= 1;
C83 <= 1;
C84 <= 1;
C85 <= 1;
C86 <= 1;
C87 <= 1;
C88 <= 1;
C89 <= 1;
C90 <= 1;

/* Integer definitions */
int C1,C2,C3,C4,C5,C6,C7,C8,C9,C10,C11,C12,C13,C14,C15,C16,C17,C18,C19,C20,C21,C22,C23,C24,C25,C26,C27,C28,C29,C30,C31,C32,C33,C34,C35,C36,C37,C38,C39,C40,C41,C42,C43,C44,C45,C46,C47,C48,C49,C50,C51,C52,C53,C54,C55,C56,C57,C58,C59,C60,C61,C62,C63,C64,C65,C66,C67,C68,C69,C70,C71,C72,C73,C74,C75,C76,C77,C78,C79,C80,C81,C82,C83,C84,C85,C86,C87,C88,C89,C90;
